SYSTEM = Single-shot GW
PREC = Normal ; ENCUT = 500.0
ALGO = GW0  
ISMEAR = 0 ; SIGMA = 0.01 
ENCUTGW = 350 ; NELM = 1 ;  NOMEGA =  80 ;  OMEGATL = 280
KPAR = 4
#NPAR = 10
#NBANDSO=4 ; NBANDSV=8 ; LADDER=.TRUE. ; LUSEW=.TRUE.
NBANDS = 412
NBANDSGW = 96
LWAVE = .TRUE.
PRECFOCK = Normal
