SYSTEM = Structure relaxation
EDIFF = 1e-8
EDIFFG = -0.001
ENCUT = 500
ADDGRID = TRUE
IBRION = 2
ISIF = 3
NSW = 300
ISMEAR = 0 ; SIGMA = 0.01
POTIM = 0.1
#Wavefunction and charge
ISYM = 0
SYMPREC = 1.0e-7
LSCALAPACK = FALSE
LWAVE = FALSE
LCHARG = FALSE
#Target Pressure
PSTRESS = 0
NPAR = 4
# NBANDS = 412
