SYSTEM = BSE
PREC = Normal ; ENCUT = 500.0
ALGO = BSE 
ANTIRES = 0
ISMEAR = 0 ; SIGMA = 0.01
ENCUTGW = 350
EDIFF = 1.E-8
NBANDS = 412
NBANDSO = 16
NBANDSV = 32
OMEGAMAX = 80
PRECFOCK = Normal
